868 778
472 22
383 371
8 449
898 967
726 458
757 573
392 217
639 892
139 712
363 458
460 626
942 423
205 168
233 409
964 385
820 541
791 498
183 47
705 445
372 860
274 929
752 19
83 357
717 62
553 417
798 171
838 386
305 93
795 538
80 370
949 615
658 923
63 440
167 884
702 946
905 484
929 325
689 747
440 850
530 646
151 387
966 321
562 922
998 929
522 733
110 486
878 554
235 275
217 875
67 54
404 945
672 425
705 50
269 15
346 363
548 96
925 22
289 191
970 303
909 505
499 838
893 54
984 834
737 92
891 717
277 303
898 71
612 749
369 46
3 539
459 350
691 324
315 214
741 511
510 8
184 545
862 689
177 683
552 478
26 20
612 688
183 714
833 629
163 341
376 996
504 415
7 855
149 361
751 510
622 487
947 115
295 569
238 414
65 974
361 903
402 414
901 162
526 571
467 846
